
Gurobi 10.0.1 (linux64) logging started Sun Nov 26 15:41:49 2023

Set parameter LogFile to value "ArtificialInstance/ExperimentV2/S2T4K2/AdRo/gurobiSpRo27.txt"
Gurobi Optimizer version 10.0.1 build v10.0.1rc0 (linux64)

CPU model: AMD EPYC 7H12 64-Core Processor, instruction set [SSE2|AVX|AVX2]
Thread count: 128 physical cores, 128 logical processors, using up to 32 threads

Academic license 656792 - for non-commercial use only - registered to b.___@student.vu.nl
Optimize a model with 6812 rows, 6490 columns and 25095 nonzeros
Model fingerprint: 0x7b701f73
Variable types: 1 continuous, 6489 integer (6489 binary)
Coefficient statistics:
  Matrix range     [1e+00, 4e+01]
  Objective range  [1e+00, 2e+01]
  Bounds range     [1e+00, 1e+00]
  RHS range        [1e+00, 1e+00]
Presolve removed 3195 rows and 2988 columns
Presolve time: 0.08s
Presolved: 3617 rows, 3502 columns, 13667 nonzeros
Variable types: 1 continuous, 3501 integer (3501 binary)
Found heuristic solution: objective 81.4962413
Found heuristic solution: objective 79.8675025

Root relaxation: objective 6.718004e+01, 484 iterations, 0.01 seconds (0.01 work units)

    Nodes    |    Current Node    |     Objective Bounds      |     Work
 Expl Unexpl |  Obj  Depth IntInf | Incumbent    BestBd   Gap | It/Node Time

H    0     0                      67.1800450   60.49280  10.0%     -    0s
     0     0          -    0        67.18004   67.18004  0.00%     -    0s

Explored 1 nodes (760 simplex iterations) in 0.13 seconds (0.09 work units)
Thread count was 32 (of 128 available processors)

Solution count 3: 67.18 79.8675 81.4962 

Optimal solution found (tolerance 1.00e-04)
Best objective 6.718004496586e+01, best bound 6.718004496586e+01, gap 0.0000%
